
;this file is automatically generated: Fri Jul 01 15:01:37 IST 2016

;declarations generated

(declare-fun A1 () Int )
(declare-fun a_0_2 () Int )
(declare-fun a_0_0 () Int )
(declare-fun A0 () Int )
(declare-fun s0 () Int )
(declare-fun s2 () Int )
(declare-fun s1 () Int )
(declare-fun a_1_1 () Int )
(declare-fun a_1_0 () Int )

;formula(s) generated
(assert (and (>= A0 0) (<= A0 1)))
(assert (and (>= A1 0) (<= A1 1)))
(assert (and (>= s0 0) (<= s0 1)))
(assert (and (>= s1 0) (<= s1 1)))
(assert (and (>= s2 0) (<= s2 1)))
(assert (and (>= a_0_0 0) (<= a_0_0 1)))
(assert (and (>= a_0_2 0) (<= a_0_2 1)))
(assert (and (>= a_1_0 0) (<= a_1_0 1)))
(assert (and (>= a_1_1 0) (<= a_1_1 1)))
(assert (=> (= s0 1) (and (= a_0_0 1) (= a_1_0 1))))
(assert (=> (= s0 0) (and (= a_0_0 0) (= a_1_0 0))))
(assert (=> (= s1 1) (= a_1_1 1)))
(assert (=> (= s1 0) (= a_1_1 0)))
(assert (=> (= s2 1) (= a_0_2 1)))
(assert (=> (= s2 0) (= a_0_2 0)))
(assert (=> (or (= a_0_0 1) (= a_0_2 1)) (= A0 1)))
(assert (=> (and (= a_0_0 0) (= a_0_2 0)) (= A0 0)))
(assert (=> (or (= a_1_0 1) (= a_1_1 1)) (= A1 1)))
(assert (=> (and (= a_1_0 0) (= a_1_1 0)) (= A1 0)))
(assert (not (= s0 1) ))
(assert (not (and (= s1 1) (= s2 1)) ))
(assert (= (+ (+ s0 s1) s2) 4))
